p edge 456
e 0 6
e 0 198
e 0 403
e 1 2
e 1 50
e 1 255
e 1 424
e 2 50
e 2 319
e 2 362
e 2 363
e 3 48
e 3 51
e 3 56
e 3 61
e 3 318
e 4 11
e 4 12
e 4 13
e 4 100
e 4 270
e 4 327
e 4 412
e 4 453
e 5 49
e 5 52
e 5 54
e 5 62
e 5 115
e 5 208
e 5 320
e 5 322
e 5 423
e 6 53
e 6 198
e 6 204
e 6 206
e 6 324
e 6 403
e 7 317
e 7 401
e 7 402
e 8 16
e 8 21
e 8 282
e 8 360
e 8 455
e 9 10
e 9 64
e 9 96
e 9 192
e 9 308
e 9 325
e 9 326
e 9 405
e 9 409
e 10 48
e 10 56
e 10 96
e 10 325
e 10 326
e 10 404
e 11 12
e 11 67
e 11 69
e 11 259
e 11 270
e 11 327
e 12 270
e 14 15
e 14 184
e 14 230
e 14 287
e 14 290
e 14 291
e 14 395
e 14 399
e 15 230
e 15 263
e 15 279
e 15 291
e 16 21
e 16 308
e 16 360
e 16 387
e 17 19
e 17 20
e 17 24
e 17 27
e 17 32
e 17 36
e 17 38
e 17 43
e 18 32
e 18 33
e 18 35
e 18 36
e 19 20
e 19 26
e 19 42
e 19 43
e 19 45
e 20 24
e 20 26
e 20 233
e 20 234
e 20 235
e 20 258
e 22 23
e 22 27
e 22 33
e 22 34
e 22 44
e 23 25
e 23 31
e 23 34
e 24 37
e 24 38
e 24 46
e 24 257
e 24 279
e 25 26
e 25 31
e 25 45
e 25 47
e 26 45
e 26 46
e 26 47
e 26 219
e 26 220
e 26 223
e 26 233
e 26 276
e 26 309
e 26 381
e 26 407
e 27 32
e 27 33
e 27 43
e 28 30
e 28 247
e 28 250
e 28 341
e 29 248
e 29 275
e 29 341
e 29 352
e 30 247
e 30 254
e 30 341
e 30 348
e 30 352
e 30 359
e 31 44
e 31 45
e 32 33
e 32 36
e 33 34
e 33 35
e 34 35
e 34 47
e 35 36
e 35 46
e 35 47
e 36 37
e 36 38
e 36 46
e 37 38
e 37 46
e 39 40
e 39 41
e 39 66
e 39 274
e 39 296
e 39 297
e 39 305
e 39 352
e 40 41
e 42 43
e 42 44
e 42 45
e 43 44
e 44 45
e 46 47
e 46 279
e 46 309
e 46 312
e 48 56
e 48 61
e 48 404
e 48 424
e 49 54
e 49 208
e 49 319
e 49 361
e 49 363
e 50 55
e 50 199
e 50 203
e 50 315
e 50 319
e 50 323
e 50 401
e 50 402
e 50 424
e 51 55
e 51 61
e 51 197
e 51 316
e 51 318
e 52 54
e 52 60
e 52 202
e 52 315
e 52 320
e 52 321
e 53 59
e 53 62
e 53 206
e 53 403
e 53 423
e 54 315
e 54 319
e 55 61
e 55 197
e 55 401
e 55 424
e 56 96
e 56 158
e 56 318
e 56 433
e 57 58
e 57 59
e 57 151
e 57 318
e 57 423
e 58 59
e 58 196
e 58 318
e 59 196
e 59 198
e 59 207
e 59 316
e 59 403
e 59 423
e 60 63
e 60 195
e 60 205
e 60 315
e 60 425
e 61 424
e 62 206
e 62 322
e 62 423
e 62 426
e 63 202
e 63 204
e 63 324
e 63 425
e 64 65
e 64 245
e 64 308
e 64 388
e 64 409
e 65 245
e 65 307
e 65 388
e 66 251
e 66 252
e 66 296
e 66 300
e 66 367
e 66 387
e 67 69
e 67 130
e 67 327
e 68 69
e 68 133
e 68 327
e 68 328
e 68 329
e 68 330
e 68 332
e 68 333
e 68 334
e 68 335
e 69 259
e 69 327
e 69 328
e 70 71
e 70 72
e 70 76
e 70 150
e 71 143
e 71 418
e 71 419
e 71 420
e 72 87
e 72 127
e 72 420
e 73 74
e 73 77
e 73 135
e 73 139
e 74 75
e 74 87
e 74 88
e 75 76
e 75 82
e 75 168
e 76 87
e 76 169
e 77 87
e 77 127
e 77 135
e 78 99
e 78 105
e 78 109
e 78 114
e 78 172
e 79 80
e 79 81
e 79 113
e 79 140
e 79 147
e 79 148
e 79 183
e 80 81
e 80 438
e 81 84
e 81 183
e 81 376
e 81 432
e 81 438
e 82 152
e 82 153
e 82 169
e 83 141
e 83 152
e 83 153
e 83 438
e 84 157
e 84 161
e 84 215
e 84 376
e 84 432
e 85 111
e 85 165
e 85 171
e 85 374
e 86 134
e 86 166
e 86 415
e 86 431
e 86 434
e 88 137
e 88 139
e 88 168
e 89 97
e 89 117
e 89 135
e 89 318
e 89 417
e 89 418
e 89 433
e 90 112
e 90 122
e 90 175
e 90 182
e 90 217
e 91 93
e 91 94
e 91 217
e 91 436
e 92 93
e 92 97
e 92 118
e 92 135
e 93 94
e 93 118
e 93 129
e 93 135
e 93 217
e 94 95
e 94 119
e 95 96
e 95 119
e 95 129
e 95 192
e 95 416
e 95 430
e 95 439
e 96 97
e 96 158
e 96 159
e 96 174
e 96 192
e 96 439
e 97 118
e 97 159
e 97 174
e 97 433
e 98 128
e 98 183
e 98 194
e 98 416
e 98 431
e 98 437
e 99 153
e 99 169
e 99 172
e 100 262
e 100 263
e 100 266
e 100 412
e 100 453
e 101 102
e 101 214
e 101 216
e 101 248
e 101 346
e 101 355
e 101 356
e 102 103
e 102 214
e 102 248
e 103 214
e 103 337
e 103 340
e 103 342
e 103 346
e 103 355
e 103 356
e 104 152
e 104 160
e 104 432
e 104 438
e 105 106
e 105 108
e 105 114
e 105 115
e 105 116
e 105 120
e 105 423
e 106 108
e 106 115
e 106 121
e 106 141
e 106 146
e 106 172
e 106 208
e 107 138
e 107 160
e 107 170
e 107 432
e 108 115
e 108 116
e 108 120
e 109 150
e 109 151
e 109 169
e 110 143
e 110 151
e 110 419
e 111 154
e 111 157
e 111 165
e 111 171
e 111 182
e 111 215
e 111 414
e 112 122
e 112 137
e 112 138
e 113 136
e 113 140
e 113 145
e 114 151
e 114 423
e 115 120
e 115 208
e 116 120
e 117 127
e 117 418
e 117 420
e 118 129
e 118 174
e 119 149
e 119 436
e 121 136
e 121 145
e 121 208
e 122 138
e 122 161
e 122 189
e 123 124
e 123 173
e 123 182
e 123 190
e 123 436
e 124 125
e 124 155
e 124 173
e 124 182
e 125 126
e 125 155
e 125 173
e 125 430
e 126 155
e 126 413
e 126 430
e 126 435
e 127 135
e 128 183
e 128 194
e 129 439
e 131 132
e 131 133
e 131 261
e 131 328
e 131 331
e 132 330
e 132 334
e 133 260
e 133 261
e 133 328
e 133 332
e 134 144
e 134 156
e 134 166
e 134 431
e 135 217
e 136 141
e 136 147
e 137 138
e 137 160
e 137 175
e 138 170
e 139 175
e 139 217
e 140 145
e 140 148
e 140 183
e 140 208
e 141 146
e 141 147
e 142 415
e 142 416
e 142 431
e 143 150
e 143 151
e 144 156
e 144 194
e 145 208
e 146 153
e 146 172
e 147 438
e 148 183
e 149 190
e 149 430
e 149 436
e 150 169
e 151 417
e 151 423
e 152 168
e 154 157
e 154 161
e 154 182
e 154 189
e 155 182
e 155 413
e 155 414
e 155 434
e 155 435
e 156 164
e 156 166
e 156 183
e 156 194
e 157 215
e 158 159
e 158 433
e 159 433
e 160 168
e 161 170
e 161 189
e 162 163
e 162 374
e 162 422
e 163 374
e 163 421
e 163 422
e 164 167
e 164 374
e 164 421
e 165 176
e 165 215
e 166 167
e 166 434
e 167 171
e 167 374
e 167 414
e 170 432
e 171 374
e 171 414
e 173 190
e 173 430
e 174 439
e 175 217
e 176 215
e 176 374
e 176 376
e 176 422
e 177 178
e 177 180
e 177 181
e 177 229
e 178 179
e 178 180
e 178 181
e 179 180
e 179 181
e 179 273
e 179 412
e 180 225
e 180 226
e 180 227
e 180 228
e 180 229
e 180 273
e 181 229
e 181 230
e 181 263
e 181 412
e 182 189
e 182 217
e 182 436
e 183 194
e 183 208
e 183 376
e 183 421
e 183 422
e 183 437
e 184 230
e 184 244
e 184 287
e 185 187
e 185 188
e 185 297
e 185 298
e 185 299
e 186 188
e 186 296
e 186 298
e 186 299
e 186 300
e 187 299
e 188 298
e 188 299
e 190 430
e 190 436
e 191 192
e 191 241
e 191 416
e 191 437
e 191 453
e 192 193
e 192 308
e 192 416
e 192 453
e 193 308
e 193 360
e 193 453
e 194 431
e 195 197
e 195 199
e 195 203
e 195 205
e 195 315
e 195 316
e 195 317
e 196 316
e 196 318
e 197 316
e 197 317
e 197 401
e 198 204
e 198 207
e 198 425
e 199 203
e 199 315
e 200 201
e 200 206
e 200 320
e 200 324
e 200 426
e 201 320
e 201 324
e 201 427
e 202 427
e 203 317
e 203 323
e 204 324
e 204 425
e 205 207
e 205 316
e 206 324
e 206 426
e 207 316
e 207 425
e 208 242
e 208 361
e 208 437
e 209 210
e 209 211
e 209 288
e 209 392
e 209 393
e 210 212
e 210 285
e 210 288
e 210 393
e 211 288
e 211 392
e 212 394
e 212 395
e 212 399
e 213 338
e 213 340
e 213 343
e 213 344
e 213 345
e 214 346
e 215 376
e 216 248
e 216 249
e 216 354
e 216 356
e 217 436
e 218 219
e 218 220
e 218 223
e 219 220
e 220 223
e 221 222
e 221 223
e 221 381
e 221 391
e 222 223
e 222 224
e 223 224
e 223 381
e 225 227
e 225 228
e 226 227
e 226 230
e 226 273
e 226 327
e 227 228
e 227 230
e 228 229
e 228 230
e 229 230
e 230 263
e 231 232
e 231 243
e 231 244
e 231 407
e 231 408
e 232 407
e 233 234
e 233 236
e 233 258
e 233 379
e 233 380
e 233 381
e 234 235
e 234 236
e 235 236
e 235 258
e 236 258
e 237 238
e 237 386
e 237 387
e 237 389
e 238 387
e 238 388
e 238 389
e 239 241
e 239 242
e 239 452
e 240 242
e 240 452
e 241 242
e 241 437
e 241 452
e 241 453
e 242 361
e 242 437
e 242 452
e 242 453
e 242 454
e 243 244
e 244 287
e 244 408
e 245 246
e 245 307
e 245 308
e 246 307
e 246 308
e 247 250
e 247 254
e 248 249
e 248 250
e 248 341
e 248 357
e 249 347
e 249 354
e 249 357
e 249 358
e 250 254
e 250 341
e 250 357
e 251 252
e 251 370
e 252 295
e 252 370
e 252 386
e 253 345
e 253 348
e 253 350
e 253 353
e 253 359
e 254 353
e 254 357
e 254 358
e 254 359
e 255 256
e 255 404
e 255 424
e 256 404
e 256 405
e 256 406
e 257 258
e 257 279
e 257 282
e 257 378
e 257 390
e 257 455
e 258 378
e 258 380
e 259 260
e 259 270
e 259 272
e 259 328
e 260 270
e 260 271
e 260 272
e 260 273
e 260 328
e 260 332
e 261 334
e 261 335
e 262 263
e 262 264
e 262 265
e 262 266
e 263 264
e 263 279
e 263 282
e 263 360
e 263 412
e 264 265
e 264 266
e 264 269
e 264 360
e 266 267
e 266 268
e 266 269
e 266 360
e 266 453
e 267 268
e 267 269
e 267 360
e 268 269
e 269 360
e 270 271
e 270 272
e 270 273
e 270 412
e 271 272
e 273 327
e 273 329
e 273 332
e 273 412
e 274 275
e 274 297
e 274 352
e 275 297
e 276 277
e 276 278
e 276 279
e 276 281
e 276 309
e 276 310
e 276 312
e 276 407
e 276 408
e 277 279
e 277 280
e 277 310
e 278 281
e 278 310
e 278 311
e 279 280
e 279 281
e 279 282
e 279 291
e 279 312
e 280 281
e 280 311
e 281 291
e 281 311
e 281 408
e 282 360
e 282 455
e 283 284
e 283 286
e 283 392
e 283 400
e 284 286
e 284 392
e 284 393
e 284 394
e 285 288
e 285 291
e 285 399
e 286 375
e 286 400
e 287 288
e 287 290
e 287 408
e 288 289
e 288 290
e 288 291
e 288 292
e 288 392
e 288 408
e 289 292
e 289 375
e 289 392
e 289 400
e 290 292
e 290 395
e 290 396
e 290 397
e 290 398
e 291 399
e 291 408
e 292 375
e 292 398
e 293 295
e 293 364
e 293 389
e 294 295
e 294 386
e 295 370
e 295 386
e 296 297
e 296 299
e 296 300
e 297 299
e 298 300
e 300 367
e 300 368
e 300 370
e 301 302
e 302 303
e 302 305
e 302 441
e 302 443
e 303 304
e 303 443
e 303 446
e 304 442
e 304 444
e 304 446
e 305 336
e 305 352
e 305 441
e 305 444
e 305 445
e 305 450
e 305 451
e 306 446
e 306 447
e 306 448
e 306 449
e 307 308
e 307 388
e 308 360
e 308 387
e 309 312
e 310 311
e 313 314
e 313 377
e 313 390
e 313 391
e 314 377
e 314 378
e 314 382
e 314 390
e 316 318
e 317 323
e 317 401
e 318 417
e 318 433
e 319 363
e 320 321
e 320 322
e 321 427
e 322 426
e 323 402
e 324 427
e 325 326
e 327 329
e 327 361
e 327 453
e 328 330
e 328 331
e 329 332
e 330 333
e 330 334
e 334 335
e 336 338
e 336 339
e 336 349
e 336 351
e 336 352
e 336 445
e 337 339
e 337 342
e 337 349
e 337 351
e 338 339
e 338 343
e 338 352
e 339 340
e 339 342
e 339 349
e 340 342
e 340 344
e 340 347
e 340 354
e 341 352
e 343 345
e 343 348
e 343 352
e 344 345
e 344 350
e 345 348
e 345 350
e 346 355
e 347 350
e 347 354
e 347 358
e 348 352
e 348 359
e 349 351
e 350 353
e 350 358
e 351 440
e 351 445
e 353 358
e 353 359
e 354 356
e 355 356
e 357 358
e 360 453
e 361 362
e 361 363
e 361 453
e 362 363
e 364 366
e 364 368
e 364 369
e 364 370
e 364 371
e 364 372
e 364 373
e 364 389
e 365 372
e 365 373
e 366 368
e 366 369
e 366 371
e 367 370
e 368 369
e 368 370
e 368 372
e 369 371
e 369 372
e 369 373
e 372 373
e 374 421
e 375 394
e 375 396
e 375 398
e 375 400
e 376 422
e 377 381
e 377 382
e 377 391
e 378 380
e 378 382
e 378 390
e 379 380
e 379 381
e 379 383
e 379 384
e 379 385
e 380 384
e 380 428
e 381 382
e 381 385
e 381 391
e 381 428
e 382 428
e 383 384
e 383 385
e 383 429
e 384 428
e 384 429
e 385 429
e 386 387
e 386 389
e 387 388
e 390 391
e 390 455
e 392 393
e 393 394
e 394 395
e 394 396
e 395 396
e 395 399
e 396 397
e 396 398
e 397 398
e 401 402
e 404 405
e 404 424
e 405 406
e 405 409
e 405 411
e 407 408
e 409 410
e 409 411
e 410 411
e 413 435
e 414 434
e 415 416
e 415 431
e 415 434
e 415 435
e 416 430
e 416 435
e 416 437
e 417 418
e 417 419
e 418 419
e 418 420
e 421 422
e 428 429
e 430 435
e 434 435
e 440 442
e 440 445
e 441 443
e 441 450
e 442 444
e 442 445
e 443 446
e 443 448
e 443 450
e 444 445
e 444 446
e 444 449
e 444 451
e 446 447
e 446 448
e 446 449
e 447 449
e 448 450
e 448 451
e 449 451
e 450 451
e 452 453
c k 2
